p cnf 468
-7 -147
-8 -150
-9 -153
-10 -156
-11 -159
-12 -162
-13 163
-14 164
-15 165
-16 166
-17 167
-18 -8
-18 -9
8 9 18
-19 -10
-19 -11
10 11 19
-20 -12
-20 -13
12 13 20
-21 -14
-21 -15
14 15 21
-22 -16
-22 -17
16 17 22
-23 18
-23 19
-18 -19 23
-24 20
-24 21
-20 -21 24
-25 23
-25 24
-23 -24 25
-26 22
-26 25
-22 -25 26
-27 -7
-27 8
7 -8 27
-28 7
-28 -8
-7 8 28
-29 -27
-29 -28
27 28 29
-30 7
-30 8
-7 -8 30
-31 -7
-31 -29
7 29 31
-32 7
-32 29
-7 -29 32
-33 -31
-33 -32
31 32 33
-34 7
-34 -29
-7 29 34
-35 -30
-35 -34
30 34 35
-36 -8
-36 9
8 -9 36
-37 8
-37 -9
-8 9 37
-38 -36
-38 -37
36 37 38
-39 8
-39 9
-8 -9 39
-40 35
-40 -38
-35 38 40
-41 -35
-41 38
35 -38 41
-42 -40
-42 -41
40 41 42
-43 -35
-43 -38
35 38 43
-44 -39
-44 -43
39 43 44
-45 -9
-45 10
9 -10 45
-46 9
-46 -10
-9 10 46
-47 -45
-47 -46
45 46 47
-48 9
-48 10
-9 -10 48
-49 44
-49 -47
-44 47 49
-50 -44
-50 47
44 -47 50
-51 -49
-51 -50
49 50 51
-52 -44
-52 -47
44 47 52
-53 -48
-53 -52
48 52 53
-54 -10
-54 11
10 -11 54
-55 10
-55 -11
-10 11 55
-56 -54
-56 -55
54 55 56
-57 10
-57 11
-10 -11 57
-58 53
-58 -56
-53 56 58
-59 -53
-59 56
53 -56 59
-60 -58
-60 -59
58 59 60
-61 -53
-61 -56
53 56 61
-62 -57
-62 -61
57 61 62
-63 -11
-63 12
11 -12 63
-64 11
-64 -12
-11 12 64
-65 -63
-65 -64
63 64 65
-66 11
-66 12
-11 -12 66
-67 62
-67 -65
-62 65 67
-68 -62
-68 65
62 -65 68
-69 -67
-69 -68
67 68 69
-70 -62
-70 -65
62 65 70
-71 -66
-71 -70
66 70 71
-72 -12
-72 13
12 -13 72
-73 12
-73 -13
-12 13 73
-74 -72
-74 -73
72 73 74
-75 12
-75 13
-12 -13 75
-76 71
-76 -74
-71 74 76
-77 -71
-77 74
71 -74 77
-78 -76
-78 -77
76 77 78
-79 -71
-79 -74
71 74 79
-80 -75
-80 -79
75 79 80
-81 -13
-81 14
13 -14 81
-82 13
-82 -14
-13 14 82
-83 -81
-83 -82
81 82 83
-84 13
-84 14
-13 -14 84
-85 80
-85 -83
-80 83 85
-86 -80
-86 83
80 -83 86
-87 -85
-87 -86
85 86 87
-88 -80
-88 -83
80 83 88
-89 -84
-89 -88
84 88 89
-90 -14
-90 15
14 -15 90
-91 14
-91 -15
-14 15 91
-92 -90
-92 -91
90 91 92
-93 14
-93 15
-14 -15 93
-94 89
-94 -92
-89 92 94
-95 -89
-95 92
89 -92 95
-96 -94
-96 -95
94 95 96
-97 -89
-97 -92
89 92 97
-98 -93
-98 -97
93 97 98
-99 -15
-99 16
15 -16 99
-100 15
-100 -16
-15 16 100
-101 -99
-101 -100
99 100 101
-102 15
-102 16
-15 -16 102
-103 98
-103 -101
-98 101 103
-104 -98
-104 101
98 -101 104
-105 -103
-105 -104
103 104 105
-106 -98
-106 -101
98 101 106
-107 -102
-107 -106
102 106 107
-108 -16
-108 17
16 -17 108
-109 16
-109 -17
-16 17 109
-110 -108
-110 -109
108 109 110
-111 16
-111 17
-16 -17 111
-112 107
-112 -110
-107 110 112
-113 -107
-113 110
107 -110 113
-114 -112
-114 -113
112 113 114
-115 -107
-115 -110
107 110 115
-116 -111
-116 -115
111 115 116
-117 7
-117 -33
-7 33 117
-118 -7
-118 9
7 -9 118
-119 -117
-119 -118
117 118 119
-120 7
-120 -42
-7 42 120
-121 -7
-121 10
7 -10 121
-122 -120
-122 -121
120 121 122
-123 7
-123 -51
-7 51 123
-124 -7
-124 11
7 -11 124
-125 -123
-125 -124
123 124 125
-126 7
-126 -60
-7 60 126
-127 -7
-127 12
7 -12 127
-128 -126
-128 -127
126 127 128
-129 7
-129 -69
-7 69 129
-130 -7
-130 13
7 -13 130
-131 -129
-131 -130
129 130 131
-132 7
-132 -78
-7 78 132
-133 -7
-133 14
7 -14 133
-134 -132
-134 -133
132 133 134
-135 7
-135 -87
-7 87 135
-136 -7
-136 15
7 -15 136
-137 -135
-137 -136
135 136 137
-138 7
-138 -96
-7 96 138
-139 -7
-139 16
7 -16 139
-140 -138
-140 -139
138 139 140
-141 7
-141 -105
-7 105 141
-142 -7
-142 17
7 -17 142
-143 -141
-143 -142
141 142 143
-144 7
-144 -114
-7 114 144
-145 1
-145 26
-1 -26 145
-146 -26
-146 27
26 -27 146
-147 -145
-147 -146
145 146 147
-148 2
-148 26
-2 -26 148
-149 -26
-149 -119
26 119 149
-150 -148
-150 -149
148 149 150
-151 3
-151 26
-3 -26 151
-152 -26
-152 -122
26 122 152
-153 -151
-153 -152
151 152 153
-154 4
-154 26
-4 -26 154
-155 -26
-155 -125
26 125 155
-156 -154
-156 -155
154 155 156
-157 5
-157 26
-5 -26 157
-158 -26
-158 -128
26 128 158
-159 -157
-159 -158
157 158 159
-160 6
-160 26
-6 -26 160
-161 -26
-161 -131
26 131 161
-162 -160
-162 -161
160 161 162
-163 -26
-163 -134
26 134 163
-164 -26
-164 -137
26 137 164
-165 -26
-165 -140
26 140 165
-166 -26
-166 -143
26 143 166
-167 -26
-167 144
26 -144 167
-168 -17
-168 116
17 -116 168
-169 7
-169 -168
-7 168 169
169
